%NProcShared=2
%Chk=checkpoint.chk
#n B3LYP/6-31G(d) Opt

 Title

0 1
C         -0.57407        3.43158        0.35290
C          0.58841        2.95217       -0.28650
C         -1.32318        2.51537        1.12492
C         -0.92555        1.17501        1.25204
C          0.99212        1.61477       -0.16433
C          0.23740        0.71202        0.60765
C          0.64401       -0.64794        0.73475
C         -0.13415       -1.54325        1.52041
C          1.82316       -1.09329        0.07442
C          0.27259       -2.90328        1.64773
C          2.22990       -2.45332        0.20175
C          1.45181       -3.34860        0.98751
H         -2.22253        2.82429        1.63778
C         -1.68171        0.29226        2.01909
C          2.14461        1.17194       -0.80765
C         -0.97767        4.91374        0.18843
H          1.18980        3.62253       -0.88715
C          3.39415       -2.95879       -0.43074
C          1.85868       -4.70845        1.11499
C         -1.29834       -1.03775        2.15298
C         -0.45897       -3.84465        2.41583
C          2.55478       -0.15189       -0.69357
H          2.73739        1.85446       -1.40621
H          3.45612       -0.39710       -1.22635
H         -2.58020        0.63101        2.52250
H         -1.94648       -1.63927        2.76492
C          1.10414       -5.61111        1.88725
C          3.02181       -5.17136        0.47087
C          1.50832       -6.94831        2.01011
C          3.41991       -6.51151        0.59868
C          2.67111       -7.42758        1.37118
C         -0.04853       -5.16837        2.53028
H          0.90714       -7.61857        2.61108
C          3.07551       -8.90939        1.53684
C          3.77777       -4.28869       -0.29647
H          4.31945       -6.82034        0.08612
H         -0.64120       -5.85083        3.12902
H         -1.36036       -3.59947        2.94852
H          4.67638       -4.62740       -0.79971
H          4.04223       -2.35730       -1.04277
C          0.15156        5.81793        0.72894
C         -2.27414        5.27778        0.95175
C         -1.21466        5.22013       -1.30649
C          4.37233       -9.27327        0.77404
C          1.94691       -9.81469        0.99690
C          3.31246       -9.21442        3.03206
H          0.32907        5.61243        1.80682
H         -0.11598        6.89124        0.61805
H          1.10477        5.65703        0.18414
H         -0.30316        5.04098       -1.91343
H         -1.50380        6.28399       -1.44958
H         -2.03008        4.58019       -1.70789
H          1.76945       -9.61020       -0.08117
H          0.99353       -9.65390        1.54143
H          2.21508      -10.88775        1.10875
H          4.25189       -9.10485       -0.31805
H          4.62726      -10.34572        0.91933
H          5.23244       -8.67381        1.14338
H         -2.15359        5.10840        2.04369
H         -3.13467        4.67913        0.58210
H         -2.52843        6.35050        0.80740
H          4.12742       -8.57364        3.43306
H          3.60223      -10.27798        3.17608
H          2.40077       -9.03531        3.63872

