#n b3lyp gen pseudo=read opt freq

 Title

0 1
C          4.23236       -2.38755       -1.23328
C          3.32075       -2.38824       -2.30084
C          4.50008       -1.19257       -0.55907
C          4.11698        0.01515       -1.14831
C          3.19906        0.01939       -2.23356
C          2.67449       -1.20415       -2.69697
H          3.05780       -3.34479       -2.71880
C          4.52654        1.21659       -0.56064
C          4.25488        2.41604       -1.22923
C          3.33007        2.42625       -2.28744
C          2.67873        1.24686       -2.69004
H          3.06190        3.38757       -2.69252
C          1.40098        1.25493       -3.32276
C          0.71295        0.02499       -3.46629
C          1.39964       -1.20649       -3.33225
C         -3.19852        0.01909       -2.23340
C         -2.67792        1.24709       -2.68925
C         -2.67336       -1.20483       -2.69612
C         -1.40042        1.25498       -3.32222
C         -1.39888       -1.20670       -3.33175
C         -0.71251        0.02495       -3.46607
C         -0.69473        2.45707       -3.52972
C          0.69518        2.45705       -3.52992
C         -0.69388       -2.40729       -3.54801
C          0.69468       -2.40721       -3.54818
H         -1.15018        3.43223       -3.48838
H         -1.14810       -3.38325       -3.51287
H          1.14892       -3.38315       -3.51298
H          1.15055        3.43223       -3.48853
C         -5.15299        0.00557        1.48362
C         -5.06561        1.20899        0.74919
C         -5.00736       -1.19238        0.75915
C         -4.52722        1.21688       -0.56201
C         -4.25608        2.41685       -1.23026
C         -4.50039       -1.19368       -0.56030
C         -4.11693        0.01473       -1.14906
H         -5.22966        2.15568        1.23995
C         -4.23206       -2.38981       -1.23391
H         -5.13287       -2.13658        1.26833
C         -3.32894        2.42706       -2.28625
C         -3.31856       -2.38987       -2.29934
H         -3.05474       -3.34656       -2.71594
H         -3.05979        3.38892       -2.68942
C          5.15279        0.00486        1.48663
C          5.06529        1.20838        0.75101
H          5.23030        2.15523        1.24088
C          5.27291       -0.02581        3.05006
C          3.94218       -0.59423        3.72059
C          2.60759        0.16352        3.46498
H          4.06705       -0.63420        4.81879
H          3.82152       -1.62771        3.38942
C          1.34605       -0.44452        4.20528
H          2.49513        0.09907        2.37044
H          2.71927        1.20959        3.79073
C         -5.26911       -0.02427        3.04521
C         -0.02686        0.02072        4.04808
H          1.53182       -0.52607        5.28011
H          1.17829       -1.44691        3.81552
C         -1.34258       -0.44892        4.18680
H          0.01776        1.04187        4.67343
H         -0.01147        0.87832        3.16384
C         -2.59234        0.17167        3.44315
H         -1.53437       -0.54722        5.25936
H         -1.17392       -1.44081        3.77021
C         -3.93113       -0.58917        3.70250
H         -2.44603        0.14455        2.34439
H         -2.70807        1.20676        3.79434
H         -3.81365       -1.62350        3.37597
H         -4.05344       -0.63066        4.80236
C         -5.53971        1.37095        3.65877
H         -4.73441        2.09547        3.43165
H         -5.60628        1.30178        4.76697
H         -6.49816        1.78412        3.28202
C         -6.42393       -0.94739        3.48893
H         -7.39417       -0.59265        3.08810
H         -6.26184       -1.99539        3.16281
H         -6.48526       -0.97523        4.60001
C          5.54270        1.37078        3.66036
H          4.73685        2.09475        3.43280
H          6.49992        1.78456        3.28174
H          5.60925        1.30293        4.76833
C          6.42840       -0.94769        3.48956
H          6.26418       -1.99537        3.16304
H          6.48983       -0.97569        4.60048
H          7.39725       -0.59245        3.08702
C         -4.87973        3.67793       -0.79643
C         -6.28849        3.73248       -0.85195
C         -6.97476        4.90533       -0.56305
C         -6.26242        6.04291       -0.19832
C         -4.85592        5.99495       -0.09474
C         -4.13296        4.79905       -0.38715
H         -4.34926        6.90762        0.19207
H         -6.81475        6.95758        0.00030
H         -8.05829        4.93066       -0.64313
C         -2.59185        4.73509       -0.28623
H         -6.85934        2.86404       -1.16105
C          4.87472        3.67672       -0.79279
C          4.12273        4.79543       -0.38242
C          6.28445        3.73264       -0.84979
C          4.84848        5.99289       -0.09342
C          6.25671        6.04176       -0.19739
C          6.97055        4.90518       -0.56146
H          6.85689        2.86520       -1.16012
H          8.05480        4.93105       -0.64240
H          6.81047        6.95654       -0.00043
H          4.34471        6.90747        0.19127
C          2.57457        4.72791       -0.28804
C         -4.86690       -3.65147       -0.81008
C         -4.13414       -4.79697       -0.44349
C         -6.27920       -3.68110       -0.83866
C         -6.98147       -4.84824       -0.56338
C         -6.28301       -6.00576       -0.23822
C         -4.87431       -5.98497       -0.16234
C         -2.59029       -4.76891       -0.37324
H         -8.06701       -4.85400       -0.62346
H         -6.84294       -2.79767       -1.11807
H         -4.37902       -6.91273        0.09316
H         -6.84742       -6.91518       -0.04907
C          4.86442       -3.64800       -0.80655
C          6.27712       -3.68040       -0.83769
C          4.12635       -4.78873       -0.43640
C          4.86703       -5.98011       -0.15930
C          6.27730       -6.00384       -0.23740
C          6.97811       -4.84788       -0.56261
H          6.84230       -2.79836       -1.11908
H          4.37366       -6.90909        0.09517
C          2.57723       -4.74938       -0.36859
C          5.00675       -1.19214        0.76094
H          5.13285       -2.13651        1.26936
H          8.06415       -4.85492       -0.62400
H          6.84247       -6.91390       -0.05020
C          1.93207        4.33885        1.08360
H          2.11147        3.97163       -0.91451
H          2.21043        5.68795       -0.72842
C         -1.98038        4.37189        1.09981
H         -2.22320        5.69083       -0.73144
H         -2.11880        3.96774       -0.89394
C         -1.95046       -4.46212        1.01320
H         -2.11424       -3.98648       -0.95777
H         -2.25060       -5.71596       -0.85925
C          1.91426       -4.41766        1.00549
H          2.23827       -5.70120       -0.84482
H          2.10879       -3.97826       -0.97112
C          1.98246       -2.85590        1.48237
H          2.46124       -5.13246        1.68233
H          0.95191       -4.91531        1.01608
C         -1.98985       -2.89077        1.47223
H         -0.98233       -4.94515        1.00642
H         -2.49311       -5.18740        1.68880
C         -2.01088        2.78663        1.50681
H         -2.51058        5.07914        1.80210
H         -0.99838        4.83316        1.10653
C          2.01674        2.75843        1.49695
H          0.95336        4.81474        1.11053
H          2.46971        5.03550        1.78505
O          1.24465       -1.77169        1.48395
O         -1.18726       -1.85090        1.45639
O          1.25078        1.69742        1.48740
O         -1.15951        1.79465        1.46367
Pd        -0.00985       -0.04214        1.47082
H          2.81380       -2.83961        2.15290
H         -2.82637       -2.83944        2.13375
H         -2.81114        2.69111        2.22749
H          2.87183        2.69547        2.15159

H C P 0
6-31G*
****
Pd 0
Def2SVP
****




