%NProcShared=2
%Chk=checkpoint.chk
#n B3LYP/6-31G(d) Opt

 ditertbutylpyrene

0 1
C         -1.03008        2.83666        0.42160
C          0.29061        2.53369        0.00885
C         -1.79448        1.80168        1.00839
C         -1.27034        0.51328        1.18032
C          0.82728        1.24814        0.17520
C          0.04518        0.23422        0.76261
C          0.57997       -1.06199        0.93269
C         -0.20214       -2.07592        1.52008
C          1.89547       -1.34107        0.51495
C          0.33450       -3.36149        1.68636
C          2.41958       -2.62949        0.68678
C          1.65516       -3.66449        1.27350
H         -2.80767        1.99489        1.33632
C         -2.04181       -0.50323        1.76446
C          2.13762        0.95869       -0.23757
C         -1.65475        4.23978        0.25467
H          0.92056        3.28453       -0.44538
H          3.43274       -2.82272        0.35878
C          2.27973       -5.06767        1.44019
C         -1.51247       -1.78646        1.93287
H         -0.29546       -4.11234        2.14055
C          2.66696       -0.32454       -0.06916
H          2.75452        1.72523       -0.69135
H          3.68098       -0.52153       -0.39637
H         -3.05584       -0.30625        2.09165
H         -2.12938       -2.55300        2.38665
C          1.31705       -6.08625        2.09727
C          3.53569       -4.96958        2.33339
C          2.67287       -5.62431        0.05437
C         -0.69206        5.25835       -0.40243
C         -2.04813        4.79657        1.64035
C         -2.91057        4.14144       -0.63870
H          1.77658       -5.70629       -0.59793
H          3.12804       -6.63403        0.15004
H          3.41408       -4.97480       -0.45556
H          1.02265       -5.75481        3.11659
H          1.80439       -7.08050        2.19841
H          0.40308       -6.22498        1.48006
H         -2.64115        3.74748       -1.64258
H         -3.37946        5.14075       -0.77061
H         -3.67817        3.47190       -0.19848
H          0.22181        5.39723        0.21489
H         -1.17948        6.25254       -0.50377
H         -0.39751        4.92680       -1.42167
H         -1.15194        4.87874        2.29277
H         -2.78936        4.14708        2.15027
H         -2.50338        5.80624        1.54446
H          3.26646       -4.57574        3.33737
H          4.30329       -4.30006        1.89316
H          4.00450       -5.96895        2.46509


